(declare-const y0 Real)
(declare-const y1 Real)
(declare-const y2 Real)
(declare-const y3 Real)
(declare-const y4 Real)
(declare-const y5 Real)
(declare-const y6 Real)
(declare-const y7 Real)
(declare-const y8 Real)
(declare-const y9 Real)
(declare-const y10 Real)
(declare-const y11 Real)
(declare-const y12 Real)
(declare-const y13 Real)
(declare-const y14 Real)
(declare-const y15 Real)
(declare-const y16 Real)
(declare-const y17 Real)
(assert (< (+ 86 72) y2))
(assert (< y7 y15))
(assert (= (= false false) (< 90 65)))
(assert (= 83 y9))
(assert (< 37 43))
(assert (= (< 33 y8) (< (+ y5 y1) y5)))
(assert (< y14 (+ (+ y15 3) y14)))
(assert (< 70 (+ 21 y2)))
(check-sat)
